unsat
(:max-memory          18.33
 :memory              18.33
 :num-allocs          34073
 :rlimit-count        176
 :solve-eqs-elim-vars 2
 :solve-eqs-steps     2
 :time                0.00
 :total-time          0.01)
